60

  0    1    2    3    4    5    6    7    8    9    1    2    3    4    5    6    7    8    9   10    2    3    4    5    6    7    8    9   10   11    3    4    5    6    7    8    9   10   11   12    4    5    6    7    8    9   10   11   12   13    5    6    7    8    9   10   11   12   13   14  
  1    0    1    2    3    4    5    6    7    8    2    1    2    3    4    5    6    7    8    9    3    2    3    4    5    6    7    8    9   10    4    3    4    5    6    7    8    9   10   11    5    4    5    6    7    8    9   10   11   12    6    5    6    7    8    9   10   11   12   13  
  2    1    0    1    2    3    4    5    6    7    3    2    1    2    3    4    5    6    7    8    4    3    2    3    4    5    6    7    8    9    5    4    3    4    5    6    7    8    9   10    6    5    4    5    6    7    8    9   10   11    7    6    5    6    7    8    9   10   11   12  
  3    2    1    0    1    2    3    4    5    6    4    3    2    1    2    3    4    5    6    7    5    4    3    2    3    4    5    6    7    8    6    5    4    3    4    5    6    7    8    9    7    6    5    4    5    6    7    8    9   10    8    7    6    5    6    7    8    9   10   11  
  4    3    2    1    0    1    2    3    4    5    5    4    3    2    1    2    3    4    5    6    6    5    4    3    2    3    4    5    6    7    7    6    5    4    3    4    5    6    7    8    8    7    6    5    4    5    6    7    8    9    9    8    7    6    5    6    7    8    9   10  
  5    4    3    2    1    0    1    2    3    4    6    5    4    3    2    1    2    3    4    5    7    6    5    4    3    2    3    4    5    6    8    7    6    5    4    3    4    5    6    7    9    8    7    6    5    4    5    6    7    8   10    9    8    7    6    5    6    7    8    9  
  6    5    4    3    2    1    0    1    2    3    7    6    5    4    3    2    1    2    3    4    8    7    6    5    4    3    2    3    4    5    9    8    7    6    5    4    3    4    5    6   10    9    8    7    6    5    4    5    6    7   11   10    9    8    7    6    5    6    7    8  
  7    6    5    4    3    2    1    0    1    2    8    7    6    5    4    3    2    1    2    3    9    8    7    6    5    4    3    2    3    4   10    9    8    7    6    5    4    3    4    5   11   10    9    8    7    6    5    4    5    6   12   11   10    9    8    7    6    5    6    7  
  8    7    6    5    4    3    2    1    0    1    9    8    7    6    5    4    3    2    1    2   10    9    8    7    6    5    4    3    2    3   11   10    9    8    7    6    5    4    3    4   12   11   10    9    8    7    6    5    4    5   13   12   11   10    9    8    7    6    5    6  
  9    8    7    6    5    4    3    2    1    0   10    9    8    7    6    5    4    3    2    1   11   10    9    8    7    6    5    4    3    2   12   11   10    9    8    7    6    5    4    3   13   12   11   10    9    8    7    6    5    4   14   13   12   11   10    9    8    7    6    5  
  1    2    3    4    5    6    7    8    9   10    0    1    2    3    4    5    6    7    8    9    1    2    3    4    5    6    7    8    9   10    2    3    4    5    6    7    8    9   10   11    3    4    5    6    7    8    9   10   11   12    4    5    6    7    8    9   10   11   12   13  
  2    1    2    3    4    5    6    7    8    9    1    0    1    2    3    4    5    6    7    8    2    1    2    3    4    5    6    7    8    9    3    2    3    4    5    6    7    8    9   10    4    3    4    5    6    7    8    9   10   11    5    4    5    6    7    8    9   10   11   12  
  3    2    1    2    3    4    5    6    7    8    2    1    0    1    2    3    4    5    6    7    3    2    1    2    3    4    5    6    7    8    4    3    2    3    4    5    6    7    8    9    5    4    3    4    5    6    7    8    9   10    6    5    4    5    6    7    8    9   10   11  
  4    3    2    1    2    3    4    5    6    7    3    2    1    0    1    2    3    4    5    6    4    3    2    1    2    3    4    5    6    7    5    4    3    2    3    4    5    6    7    8    6    5    4    3    4    5    6    7    8    9    7    6    5    4    5    6    7    8    9   10  
  5    4    3    2    1    2    3    4    5    6    4    3    2    1    0    1    2    3    4    5    5    4    3    2    1    2    3    4    5    6    6    5    4    3    2    3    4    5    6    7    7    6    5    4    3    4    5    6    7    8    8    7    6    5    4    5    6    7    8    9  
  6    5    4    3    2    1    2    3    4    5    5    4    3    2    1    0    1    2    3    4    6    5    4    3    2    1    2    3    4    5    7    6    5    4    3    2    3    4    5    6    8    7    6    5    4    3    4    5    6    7    9    8    7    6    5    4    5    6    7    8  
  7    6    5    4    3    2    1    2    3    4    6    5    4    3    2    1    0    1    2    3    7    6    5    4    3    2    1    2    3    4    8    7    6    5    4    3    2    3    4    5    9    8    7    6    5    4    3    4    5    6   10    9    8    7    6    5    4    5    6    7  
  8    7    6    5    4    3    2    1    2    3    7    6    5    4    3    2    1    0    1    2    8    7    6    5    4    3    2    1    2    3    9    8    7    6    5    4    3    2    3    4   10    9    8    7    6    5    4    3    4    5   11   10    9    8    7    6    5    4    5    6  
  9    8    7    6    5    4    3    2    1    2    8    7    6    5    4    3    2    1    0    1    9    8    7    6    5    4    3    2    1    2   10    9    8    7    6    5    4    3    2    3   11   10    9    8    7    6    5    4    3    4   12   11   10    9    8    7    6    5    4    5  
 10    9    8    7    6    5    4    3    2    1    9    8    7    6    5    4    3    2    1    0   10    9    8    7    6    5    4    3    2    1   11   10    9    8    7    6    5    4    3    2   12   11   10    9    8    7    6    5    4    3   13   12   11   10    9    8    7    6    5    4  
  2    3    4    5    6    7    8    9   10   11    1    2    3    4    5    6    7    8    9   10    0    1    2    3    4    5    6    7    8    9    1    2    3    4    5    6    7    8    9   10    2    3    4    5    6    7    8    9   10   11    3    4    5    6    7    8    9   10   11   12  
  3    2    3    4    5    6    7    8    9   10    2    1    2    3    4    5    6    7    8    9    1    0    1    2    3    4    5    6    7    8    2    1    2    3    4    5    6    7    8    9    3    2    3    4    5    6    7    8    9   10    4    3    4    5    6    7    8    9   10   11  
  4    3    2    3    4    5    6    7    8    9    3    2    1    2    3    4    5    6    7    8    2    1    0    1    2    3    4    5    6    7    3    2    1    2    3    4    5    6    7    8    4    3    2    3    4    5    6    7    8    9    5    4    3    4    5    6    7    8    9   10  
  5    4    3    2    3    4    5    6    7    8    4    3    2    1    2    3    4    5    6    7    3    2    1    0    1    2    3    4    5    6    4    3    2    1    2    3    4    5    6    7    5    4    3    2    3    4    5    6    7    8    6    5    4    3    4    5    6    7    8    9  
  6    5    4    3    2    3    4    5    6    7    5    4    3    2    1    2    3    4    5    6    4    3    2    1    0    1    2    3    4    5    5    4    3    2    1    2    3    4    5    6    6    5    4    3    2    3    4    5    6    7    7    6    5    4    3    4    5    6    7    8  
  7    6    5    4    3    2    3    4    5    6    6    5    4    3    2    1    2    3    4    5    5    4    3    2    1    0    1    2    3    4    6    5    4    3    2    1    2    3    4    5    7    6    5    4    3    2    3    4    5    6    8    7    6    5    4    3    4    5    6    7  
  8    7    6    5    4    3    2    3    4    5    7    6    5    4    3    2    1    2    3    4    6    5    4    3    2    1    0    1    2    3    7    6    5    4    3    2    1    2    3    4    8    7    6    5    4    3    2    3    4    5    9    8    7    6    5    4    3    4    5    6  
  9    8    7    6    5    4    3    2    3    4    8    7    6    5    4    3    2    1    2    3    7    6    5    4    3    2    1    0    1    2    8    7    6    5    4    3    2    1    2    3    9    8    7    6    5    4    3    2    3    4   10    9    8    7    6    5    4    3    4    5  
 10    9    8    7    6    5    4    3    2    3    9    8    7    6    5    4    3    2    1    2    8    7    6    5    4    3    2    1    0    1    9    8    7    6    5    4    3    2    1    2   10    9    8    7    6    5    4    3    2    3   11   10    9    8    7    6    5    4    3    4  
 11   10    9    8    7    6    5    4    3    2   10    9    8    7    6    5    4    3    2    1    9    8    7    6    5    4    3    2    1    0   10    9    8    7    6    5    4    3    2    1   11   10    9    8    7    6    5    4    3    2   12   11   10    9    8    7    6    5    4    3  
  3    4    5    6    7    8    9   10   11   12    2    3    4    5    6    7    8    9   10   11    1    2    3    4    5    6    7    8    9   10    0    1    2    3    4    5    6    7    8    9    1    2    3    4    5    6    7    8    9   10    2    3    4    5    6    7    8    9   10   11  
  4    3    4    5    6    7    8    9   10   11    3    2    3    4    5    6    7    8    9   10    2    1    2    3    4    5    6    7    8    9    1    0    1    2    3    4    5    6    7    8    2    1    2    3    4    5    6    7    8    9    3    2    3    4    5    6    7    8    9   10  
  5    4    3    4    5    6    7    8    9   10    4    3    2    3    4    5    6    7    8    9    3    2    1    2    3    4    5    6    7    8    2    1    0    1    2    3    4    5    6    7    3    2    1    2    3    4    5    6    7    8    4    3    2    3    4    5    6    7    8    9  
  6    5    4    3    4    5    6    7    8    9    5    4    3    2    3    4    5    6    7    8    4    3    2    1    2    3    4    5    6    7    3    2    1    0    1    2    3    4    5    6    4    3    2    1    2    3    4    5    6    7    5    4    3    2    3    4    5    6    7    8  
  7    6    5    4    3    4    5    6    7    8    6    5    4    3    2    3    4    5    6    7    5    4    3    2    1    2    3    4    5    6    4    3    2    1    0    1    2    3    4    5    5    4    3    2    1    2    3    4    5    6    6    5    4    3    2    3    4    5    6    7  
  8    7    6    5    4    3    4    5    6    7    7    6    5    4    3    2    3    4    5    6    6    5    4    3    2    1    2    3    4    5    5    4    3    2    1    0    1    2    3    4    6    5    4    3    2    1    2    3    4    5    7    6    5    4    3    2    3    4    5    6  
  9    8    7    6    5    4    3    4    5    6    8    7    6    5    4    3    2    3    4    5    7    6    5    4    3    2    1    2    3    4    6    5    4    3    2    1    0    1    2    3    7    6    5    4    3    2    1    2    3    4    8    7    6    5    4    3    2    3    4    5  
 10    9    8    7    6    5    4    3    4    5    9    8    7    6    5    4    3    2    3    4    8    7    6    5    4    3    2    1    2    3    7    6    5    4    3    2    1    0    1    2    8    7    6    5    4    3    2    1    2    3    9    8    7    6    5    4    3    2    3    4  
 11   10    9    8    7    6    5    4    3    4   10    9    8    7    6    5    4    3    2    3    9    8    7    6    5    4    3    2    1    2    8    7    6    5    4    3    2    1    0    1    9    8    7    6    5    4    3    2    1    2   10    9    8    7    6    5    4    3    2    3  
 12   11   10    9    8    7    6    5    4    3   11   10    9    8    7    6    5    4    3    2   10    9    8    7    6    5    4    3    2    1    9    8    7    6    5    4    3    2    1    0   10    9    8    7    6    5    4    3    2    1   11   10    9    8    7    6    5    4    3    2  
  4    5    6    7    8    9   10   11   12   13    3    4    5    6    7    8    9   10   11   12    2    3    4    5    6    7    8    9   10   11    1    2    3    4    5    6    7    8    9   10    0    1    2    3    4    5    6    7    8    9    1    2    3    4    5    6    7    8    9   10  
  5    4    5    6    7    8    9   10   11   12    4    3    4    5    6    7    8    9   10   11    3    2    3    4    5    6    7    8    9   10    2    1    2    3    4    5    6    7    8    9    1    0    1    2    3    4    5    6    7    8    2    1    2    3    4    5    6    7    8    9  
  6    5    4    5    6    7    8    9   10   11    5    4    3    4    5    6    7    8    9   10    4    3    2    3    4    5    6    7    8    9    3    2    1    2    3    4    5    6    7    8    2    1    0    1    2    3    4    5    6    7    3    2    1    2    3    4    5    6    7    8  
  7    6    5    4    5    6    7    8    9   10    6    5    4    3    4    5    6    7    8    9    5    4    3    2    3    4    5    6    7    8    4    3    2    1    2    3    4    5    6    7    3    2    1    0    1    2    3    4    5    6    4    3    2    1    2    3    4    5    6    7  
  8    7    6    5    4    5    6    7    8    9    7    6    5    4    3    4    5    6    7    8    6    5    4    3    2    3    4    5    6    7    5    4    3    2    1    2    3    4    5    6    4    3    2    1    0    1    2    3    4    5    5    4    3    2    1    2    3    4    5    6  
  9    8    7    6    5    4    5    6    7    8    8    7    6    5    4    3    4    5    6    7    7    6    5    4    3    2    3    4    5    6    6    5    4    3    2    1    2    3    4    5    5    4    3    2    1    0    1    2    3    4    6    5    4    3    2    1    2    3    4    5  
 10    9    8    7    6    5    4    5    6    7    9    8    7    6    5    4    3    4    5    6    8    7    6    5    4    3    2    3    4    5    7    6    5    4    3    2    1    2    3    4    6    5    4    3    2    1    0    1    2    3    7    6    5    4    3    2    1    2    3    4  
 11   10    9    8    7    6    5    4    5    6   10    9    8    7    6    5    4    3    4    5    9    8    7    6    5    4    3    2    3    4    8    7    6    5    4    3    2    1    2    3    7    6    5    4    3    2    1    0    1    2    8    7    6    5    4    3    2    1    2    3  
 12   11   10    9    8    7    6    5    4    5   11   10    9    8    7    6    5    4    3    4   10    9    8    7    6    5    4    3    2    3    9    8    7    6    5    4    3    2    1    2    8    7    6    5    4    3    2    1    0    1    9    8    7    6    5    4    3    2    1    2  
 13   12   11   10    9    8    7    6    5    4   12   11   10    9    8    7    6    5    4    3   11   10    9    8    7    6    5    4    3    2   10    9    8    7    6    5    4    3    2    1    9    8    7    6    5    4    3    2    1    0   10    9    8    7    6    5    4    3    2    1  
  5    6    7    8    9   10   11   12   13   14    4    5    6    7    8    9   10   11   12   13    3    4    5    6    7    8    9   10   11   12    2    3    4    5    6    7    8    9   10   11    1    2    3    4    5    6    7    8    9   10    0    1    2    3    4    5    6    7    8    9  
  6    5    6    7    8    9   10   11   12   13    5    4    5    6    7    8    9   10   11   12    4    3    4    5    6    7    8    9   10   11    3    2    3    4    5    6    7    8    9   10    2    1    2    3    4    5    6    7    8    9    1    0    1    2    3    4    5    6    7    8  
  7    6    5    6    7    8    9   10   11   12    6    5    4    5    6    7    8    9   10   11    5    4    3    4    5    6    7    8    9   10    4    3    2    3    4    5    6    7    8    9    3    2    1    2    3    4    5    6    7    8    2    1    0    1    2    3    4    5    6    7  
  8    7    6    5    6    7    8    9   10   11    7    6    5    4    5    6    7    8    9   10    6    5    4    3    4    5    6    7    8    9    5    4    3    2    3    4    5    6    7    8    4    3    2    1    2    3    4    5    6    7    3    2    1    0    1    2    3    4    5    6  
  9    8    7    6    5    6    7    8    9   10    8    7    6    5    4    5    6    7    8    9    7    6    5    4    3    4    5    6    7    8    6    5    4    3    2    3    4    5    6    7    5    4    3    2    1    2    3    4    5    6    4    3    2    1    0    1    2    3    4    5  
 10    9    8    7    6    5    6    7    8    9    9    8    7    6    5    4    5    6    7    8    8    7    6    5    4    3    4    5    6    7    7    6    5    4    3    2    3    4    5    6    6    5    4    3    2    1    2    3    4    5    5    4    3    2    1    0    1    2    3    4  
 11   10    9    8    7    6    5    6    7    8   10    9    8    7    6    5    4    5    6    7    9    8    7    6    5    4    3    4    5    6    8    7    6    5    4    3    2    3    4    5    7    6    5    4    3    2    1    2    3    4    6    5    4    3    2    1    0    1    2    3  
 12   11   10    9    8    7    6    5    6    7   11   10    9    8    7    6    5    4    5    6   10    9    8    7    6    5    4    3    4    5    9    8    7    6    5    4    3    2    3    4    8    7    6    5    4    3    2    1    2    3    7    6    5    4    3    2    1    0    1    2  
 13   12   11   10    9    8    7    6    5    6   12   11   10    9    8    7    6    5    4    5   11   10    9    8    7    6    5    4    3    4   10    9    8    7    6    5    4    3    2    3    9    8    7    6    5    4    3    2    1    2    8    7    6    5    4    3    2    1    0    1  
 14   13   12   11   10    9    8    7    6    5   13   12   11   10    9    8    7    6    5    4   12   11   10    9    8    7    6    5    4    3   11   10    9    8    7    6    5    4    3    2   10    9    8    7    6    5    4    3    2    1    9    8    7    6    5    4    3    2    1    0  

  0    0    0    0    1    0    0    2    0   76    0    0    0   12    0    0    0    0    0    0    0    0    0    0    0    1    0    0    0    0    0    0    0    1    0    0    0   15    1    0    0    0    0   21   47    0    0    1    0    0    0    0    5    0    6    0    0    0    2    5  
  0    0    0   59   51    1   14    0    0    1    0    0    0    0    0    1    0    0    1    0    0    0    1    0    0   17   24    1    1    0    2    6    0    0   29   70    0    0    0    0   17   52    0    0    0    0    1    0    0    0    0   81    0    1    0    0    0    0    0    1  
  0    0    0    0    0    0    0    0   24    0    4    6    2    0    0    0   19    3    0    2    2    0    1    1    6    0    0    0    0    4    0    0    1    0    0    0    0   43    0    5    0    0   48    0    0    0   10    0   95    0   11    0    1    0    0    1    1   65    0    0  
  0    7    0    0    0    5    8    0    0   18    0    0   29    0    0   73    0    0    3    0    0    0    9    0    0    1    2    1   48    0    0    3    0    0    1    7    0    0    0    0    1    2    2    0    0    0   69    0    0    0    0    0    0    2    0    0    0    0    0   29  
  2   11    0    0    0    0    2   30    1    1   58    0    0    0    0   34    7    1    4    1    0    0   63    0    0    2    0    0    0    0    0    0    0    8    7    0    0    9   13    1   20   34    0   28    1    0   18   80    0    0    1    0    3    2    1    1    0    0   14   13  
  0    1    0    1    0    0    0   24    0    0    0    4    0    4   10   29    0    0   32    0    0   67   20    0    0    0   86    2    6    0    2   18    0    0    0    1    1    0    0    0    0    0    0    0    0    5    0   27    0   12    0    7    0    2    0    0    0    0    0  100  
  0   59    0    1   36    0    0   12    0    1    0    0    0    0    0    1    1    0   24    0    0    0    1    0    0    1   70    1   15    0    1    1    0   38    1    2    0    0    1    0   11    2    0   56   11    0    1    0    0    0    0    0    1    3    0    0    0    0    0    1  
 19    0    0    0    6    0   74    0   51   29    1    1    0    0    0   52    4    2   47   31    2    0    2   73    1    1   62    0    0    0    1    0    0    7   65    0    0    3    1    6    1    0   51   11   27    0   14    2    0    0    6    0    1   83    1   13   76    0    1    0  
  0    0  100    0    1    0    0    9    0    0   66    1    1    0    0    0   80    1   35   86    1    0   23   49   99    0    0    0   35   62    1    0    1    0   38    0   51   24    4    1    0    0    1   97    0   16    3    0    4   27    2    0   21   54    0   17    9   69    0    0  
  6   12    0    1   55    0    2    1    0    0    0    0    0    0    0    2   99    0    0    0    0    0    0    0    0    2    0    0    1    0    0   27    0   99   90    0    0    0   30    0    1   90    0    6    1    0    1    0    0    0    0    0    1   18    0    0    0    0    0   13  
  0    0   10    0    0    0    0    1    1    0    0    8   43    0    0    0   71    1    0   55    1    7   95   55    1    0    0    0    0   18    0    0    1    0    0    0    0    1   30    1    0    0    4    0    0    0    0    0    7    0    1    0   42    0    0    1    1   56    0    0  
  0    0   35    0    0   13    0    8    4    0    1    0   84   54   54    0    2    3    1    5   79   54    1   94    0    0    3    0    0    0   27    0   78    0    1    8   56    0    0    0    0    0    3    0    0    1   67    0   49    6    5    2    1    1    0   16   13   98    0    0  
  0    0    1    0    2    0   38    0    1    0   22   19    0    0    0    1   58    1    0    9   16    0   15   76    5    0    0    0    0    9    0    0   33    0    0    0    0    3   17   14    0    0   44    0    0    0    0    0   75    0    3    0    6    0    0   16    1    1    0    0  
  0    0    0    0    0   31    0    0    0    0    0   44    0    0    1    0    0    0    8    0    0   35   38    0    0    0    1    9   37    0   77    1    0    0    0   28   27    0    0    0    0   12    0    0    0    5    0    0    0   17    0   41    0    6    0    0    0    0    0    0  
  0    0    0   25    0   31    0   26    0    0    0   30    0    1    0    0    0    0   93    0    0    4   22    0    0    0   18    1    1    0   74   94    0    0    0    1   71    0    0    0    0    0    0    0    0   11    0    0    0    8    0   79    0   11    0    0    0    0    0    0  
  0    1    0    1    1   31    1    0    1   34    0    0    0    6   15    0    0    0   67    0    0    0    1    0    0   48    7   54    2    0    1   10    0    0   20   93    0    0    0    0    1   94    0    0    0    0   34    0    0   28    0   26    0   83    0    0    0    0    0   30  
  0    0   29    0    1    0   12    2    1    1   10   58   33    0    0    0    0   39   34   37    1    0   95    1    0    2    0    0    0    0    1    0    3   48   66    0    0   56   15    1    1    0    6   50   16    0   83   86    0    8   64    0   33    4    6    1   51    0    9    0  
  0    0    6    0    1    0    0    1   67    0   17   85    7    0    0    0   65    0    1    3   83    0    1   51    0    0    0    0    0    0   33    0    6    0    9    0   11    6    1    1    0    0    5    8    1    1   50    0    1   55   29    0    1    7    0    3    1   16    0    0  
  0    1    0    2   13    1   39   31    1    0    0    8    0    6   33    2    7   88    0    0    0   13    1    0    0    0    6    1   34    0    2   51    5    0    2   38   20    0    0    0    2    0   12    0    0    1   15    0    0   14   44    6   23   31    0    1    0    0    0    1  
  0    0   20    0   48    0    0    1    1    0    1    8   24    0    0    0    2   75    0    0   91    0    4   40    4    0    0    0    0   11    0    0    1    0    4    0    0   11   37  100    0    0    1   33    0    0    4    8    1    0    1    0   83    0   10   69   29    2    0    0  
  0    0    1   85    0    0    0   33    1    0   23    3   12    0    0    0    7   14    0   18    0    5    0    9    1   34    0    0    0    6    0    0    3    0    0    0    0   26   19   16    0    0   29   57    0    0    6   83   87    0   15    0    1    0    0   10   13   99    0    0  
  1    0    0    0    0    1    0    0    0    0    0    1    0    1   90    0    0    0   11    0    0    0   81    0    0    0   33   20    1    0    1    1    0    0    0    1    1    0    0    0    6    0    0    0   19    1    0    0    0   45    0    1    0   84    0    0    0    0    0    0  
  0    1   77    7    4    1   30   93   67    0   40    4    0   33    1    2   76   11   20   14    0    4    0   56    0    0    1    1    1    0   33   29    0    0   19    9    1    1    1    0    1    0   10    0    0   11   27    0    0    9    1   69    1   41    0    1    0    0    0   14  
  0    0    1    0    0    0    0    7    2    0    2   17   37    0    0    0    1   71    0    1    2    0    2    0    1    0    0    0    0   79    0    0   26    0    0    0    0    7   19   59   85   14    1    0    0    0    0    0    4    0   94    0    6    0    0    5    4   68    0    0  
  0    0    1    0    0    0    0    0    6    0   11    0    1    0    0    0    0    0    0   34    1    0    0   85    0    0   27    0    0   67    0    0    3    0    0    0    0    0    0    0    0    0    2    0    0    0    0    0    3    0    0    0    0    0    0    0   28   32    0    0  
  1    5    0   69   63    0    4   16    0    7    0    0    0    0    0   10   31    0    0    0    0    0    0    0    0    0    0    0    0    0    0    1    0   90    1    0    0   17   97    0    1   22    0    7    2    0   20    0    0    0    0    0    1    0    8    0    0    0   58   11  
  0   15    0   11    0    4   74    0    0    0    0   32    3   40    3   51    0    0   43    0    0   32    5    0    0    0    0   13    2    0    1    1    0    0   93   52   65    0    0    0   80   11    0    0    0   53   40    0    0   39    0    1    0  100    0    0    1    0   86   18  
  0   21   17   26   68    1   16    0    0    0    0    0    0    1    4   18    0    0    5    0    0   12    1    0    0    0   29    0   29    0    2   29    0    0   64   15   21    0    0    0   29   13    0    0    0    0    0    0    0    7    0    1    0    1    0    0    0    0   48   16  
  0   54    0    3    0    1   28    0    0   64    0    0    0    1   43    1    0    0    1    0    0   14   32    0    0    0   89   70    0    0    1   17    1    0   12   29    2    0    0    0   14    3    0    0    0    0    1    0    0   19    0   93    0   78    0    0    0    0    0   27  
  0    0   16    0    0    0    0    0   17    0    8    1    3    0    0    0    0    4    0   72   29    0    0    8    2    0    0    0    0    0    0    1   40    0    0    0    0    0    0    1    0    0   35    0    0    0    0    0    3    0    1    0    0    0    0   90   38    5    0    0  
  0    1    0    0    0    5   20    1    1    0    0    1    0    6    1   98    1    1   10    0    0   75   20    0    0    0    1    2    4    0    0    1    0    0   22    1    1    0    0    0    0    0    0    0    0   42   71   24    0   10   13    1    0    9    0   33    0    0    0   23  
 54    2    0   15    0   92   43    0    0    7    1    0    0   80    4    6    0    0   13    1    0    4   74    0    0    0   15    1   23    0   28    0    0    0   30    2   13    0    0    0    1    5    0    0    0    0   14    0    0    1    0    1    0    1    0    0    0    0    0    1  
  0    6   47    0    0    0    0    0    1    0    1   88   59    0    0    0   12    2    0   85    1    0    0    1    1    3    0    0    0   41   34    0    0    0    0    0    0    6    0   45    0    0    1    0    0    0    0    0    1    0   22    0    0    0    0   74    4    4    0    0  
  1    0   81    0   34    0   88    1    0    1    0    0    0   46    0    0    2    0    0    0    0    0    0    0    0   50    5    0    0    0    0    0    0    0    5    0    0    6    5    0    1    2    0   28   17    0    1    1    0    0    0    0    1    0   96    0    0    0   35    0  
  0    1    0    1    1    0   79   35    4   43    0   19    0    0    0    1   25   85    3   62    0    0    1   63    0   41    1    4    1    0    1   27    0    1    0   46   24   49    1    1    2    1    0   41    5    0   23    0    0   84   75    0    6    1    0    1    2    0    0   15  
  0    1    0    8    0    1    2    0    0    0    0    1    0    3    1   21    0    0    1    0    0    1   25    0    0    0   12    1   49    0   12    3    0   58   24    0   75    0    0    0    1    1    0    0    0   28   41    0    0    2    0    1    0    7    0    0    0    0    0   30  
  0    0    0    0    0   41    0    0    1    0    0    5    0    4   93    0    0   26   22    0    0   52    4    0    0    0    4   11   25    0    2    5    0    0    1   71    0    0    0   34    0    0    0    0    0   56    4    0    0    1    1   46    0   69    0    0    0    3    0    0  
100    0   73    0   48    0    0   73    2    0    1    0    4    0    0    0   10    3    0    1    1    0   45   56    0   77    0    0    0    0    0    0    0    1    3    0    0    0   86   15    0    0    2   19    3    0    1    2    0    0   52    0    1    0    8   49   75    0   41    0  
 12    0    0    0   22    0   63    8    1    0   92    0   97    0    0    8   82    1    0    1   15    0    1    1    0    1    0    0    0    6    2    0    0   45    7    0    0    1    0    1    0    0    1   32   87    0    3    3    0    0    3    0    7    0   56    1    2    0   83    0  
  1    0   14   98    1    0    0   78   90    0   47    0    1    0    6    0    1   89    0    1   87    0    0   56    0    0   60    0    0   56    0    0    4    0   25    0    0   28   11    0    0    0   34    2    3    0   35   91    0    0   12    0    2    0    2    3    2    7   17    0  
  0    1    0   43    2    0    1   33    0   22    0    0    0    0    0   88   45    0    8    0    0    0    4    0   13   27    1   54   10    0    0   11    0    1    1    1    0    0    0    0    0    1    0    0    1    0   18    0    0    0    0    0    0   39    0    0    1    0    0   12  
  0   53    0    1   13   16    1    0    0   20    0    0    0    0    3   28    0   59    0    0    1    0    0    0    0    2   34    1   67    0    0    1    0   10    1    0    1    0    0    0   50    0    0    0   46    0   32    0    0    0    0    0    0    1    0    0    0    0    0    6  
  0    0    1    0    3    0    0    1   21    0    1   14   42    0    0    0   10    3    0    2   15    0    1    5    5    1    0    1    0   11    0    0   59    0    0    0    0    1    2    1    0    0    0   23    0    0    1   14   92    0    1    0   90    0    0    2    2   11    0    0  
 62    0    0   53    1    0   16    1    3   79    0    0    0    0    0    0   61   41    0    2   74    0    0    0    0   32    0    0    0    0    0    0    0   55   42    0    0   37   30   17    0    0   64    0    1    0   35    2    0    0    0    0    1    0   66   86    0    0   14    0  
 30    0    0    0    1    0    7    1    0   52    0    0    0    0    0    0   81   23    0    0    0    0    0    0    0    2    0    0    0    0    0    0    0   19    6    0    0   44    4    1    4   30    0   31    0    0    7    5    0    0    8    0   75    0   71    1    0    0    1    0  
  0    0    0    0    0   13   56    0   40    0    0    1    0    8   44    0    0    1    3    0    0    1   17    0    0    0    1    0    0    0   36    0    0    0    0    9   98    0    0    0    0    0    0    0    0    0    0    0   68   48   54   63    0    1    0    0    0    1    0    0  
  0   13    0    2    3    0    7    8   18    1    0    9    0    0    0   43    1    1   26    1   76    0    9    0    0   57    1    0   92    0   21    8    0    1    7   45   20    1    5    1   65    1    3   36    3    0    0    0    0   83   96    0   64    6    7    2    0    0    0   79  
  1    0    0    0    1    0    0   40    0    0    0    0    0    0    0    0   19    0    0   63   51    0    0    0    0    0    0    0    0    0    0    0    0    7    0    0    0    1   41   61    0    0    3    1   17    0    0    0    0    0    0    0    1    0   44    2    0    0   52    0  
  0    0   29    0    0    0    0    0   63    0    1   76    2    0    0    0    0   58    0   11   14    0    0    8    1    0    0    0    0    7    0    0    1    0    0    0    0    0    0    0    0    0   32    0    3   11    0    0    0    0   22    0    0    0    0   30   45    1    0    0  
  0    0    0    0    0   71    0    0   27    0    0   44    0    4    6    3   69    1    3    0    0   67    1    0    0    0    1    1    1    0    4    1    0    0   35    1    5    0    0    0    0    6    0    0    0    5    1    0    0    0    2   46    0    1    0    1    0   18    0    0  
 15    0    5    0   29    0    0   25   59    0    1   73   47    0    0    0   33    9   11    1   10    0    1    1    0    0    0    0    0    5    1    0    5    0   41   49   61    1   18    3    0    0   41    0    0   35    1    0   73    1    0    0   17    1    0   49    8    2    0    0  
  0    1    0    0    0   69    0    0    0    0    0   63    0  100    2    1    0    0    1    0    0    2    7    0    0    0    1    1   68    0   22    1    3    0    0    8    1    0    0    0    0    0    0    0    0    1    0    0    0   12    0    0    0   62    0    0    0    0    0    1  
 98    0   42    0    1    0   16    1   71   28   12    2    1    0    0    0   19    1    2    1    4    0    3    3    0    1    0    0    0    0    0    1    0    2    1    0    0   39  100   50    0    0    5    1    1    0    1   22    0    0    5    0    0    0    2    1    3    0    8    0  
  0   17    0    6    5    1   16    8    1   48    0   57    0    7    1   42    1   14    3    0    0    1    7    0    0    0    4    1    2    0    1    2    0    0    3    1    4    0    0    0    3    6    0    0    0    2    1    0    0    1    7    1    0    0    0    0    0    0    0   11  
  1    0    0    0   28    0    0    9    0    0    0    0    0    0    0    0    1    0    0    1    0    0    0    0    0   54    0    0    0    0    0    0    0    1    0    0    0    7   73   44    0    0    0    4   26    0    1    1    0    0    0    0    2    0    0   90    0    0    3    0  
  0    0    1    0   20    0    1    5   21    0   22    9   20    0    0    0   41   92   12   25    1    0    1   79    0    0    0    0    0   16   57    0   32    0    1    0    0   33   46    2    0    0   17   22    2    0    1    5    1   16   29    0   41    0    1    0    4    0    0    0  
  0    0    1    0    0    0    0    3    1    0    2   72   65    0   17    0   55   43    0    3    1    0    0    1   52    0    0    0    0    6    0    0   11    0    0    0    0   54   14   75    0    6   31    0    0    0    0    0    1   52    2    0    5    0    0   69    0    7    0    0  
  0    0   73    0    0    0    0    0   38    0    1   41    1    0    0    0    8    1    0   44    6    0    0    2   17    0    0    0    0   15    0    0   65    0    0    0   27   91    0    0    0    0    5    0    0   32    0    0   52    1  100    0    0    0    0    0    1    0    0    0  
  1    0    0    0    1    0    0   61    0    0    0    0    0    0    0   39   16    0    0    0    0    0    0    0    0    5    0    0    0    0    0    0   92   16    0    0    0   64    1    1    0    0    0    1    1    0    0    8    0    0    0    0    1    0    1    0    0    0    0    0  
  0    1    0    1   51    1   18    0    0    6    0    0    0    0    0    5    0    0    8    0    0    0    3    0    0   13   19    8    3    0    6    1    0    0    1   58    0    0    0    0   85   14    0    0    0    0    1    0    0    0    0    7    0   86    0    0    5    0    0    0  
